(declare-rel loop ((Array Int Int) (Array Int Int) (Array Int Int) (Array Int Int) Int Int ))
(declare-rel exit ())
(declare-var i Int )
(declare-var i1 Int )
(declare-var i2 Int )
(declare-var i3 Int )
(declare-var i4 Int )
(declare-var i5 Int )
(declare-var i6 Int )
(declare-var i7 Int )
(declare-var i8 Int )
(declare-var s Int )
(declare-var s1 Int )
(declare-var s2 Int )
(declare-var s3 Int )
(declare-var s4 Int )
(declare-var s5 Int )
(declare-var s6 Int )
(declare-var s7 Int )
(declare-var index_limit Int )
(declare-var a_i Int )
(declare-var a_i1 Int )
(declare-var a_i2 Int )
(declare-var a_i3 Int )
(declare-var a_i4 Int )
(declare-var a_i5 Int )
(declare-var a_i6 Int )
(declare-var a_i7 Int )
(declare-var b_i Int )
(declare-var b_i1 Int )
(declare-var b_i2 Int )
(declare-var b_i3 Int )
(declare-var b_i4 Int )
(declare-var b_i5 Int )
(declare-var b_i6 Int )
(declare-var b_i7 Int )
(declare-var c_i Int )
(declare-var c_i1 Int )
(declare-var c_i2 Int )
(declare-var c_i3 Int )
(declare-var c_i4 Int )
(declare-var c_i5 Int )
(declare-var c_i6 Int )
(declare-var c_i7 Int )
(declare-var d_i Int )
(declare-var d_i1 Int )
(declare-var d_i2 Int )
(declare-var d_i3 Int )
(declare-var d_i4 Int )
(declare-var d_i5 Int )
(declare-var d_i6 Int )
(declare-var d_i7 Int )
(declare-var count Int )
(declare-var a_array (Array Int Int) )
(declare-var a_array1 (Array Int Int) )
(declare-var a_array2 (Array Int Int) )
(declare-var a_array3 (Array Int Int) )
(declare-var a_array4 (Array Int Int) )
(declare-var a_array5 (Array Int Int) )
(declare-var a_array6 (Array Int Int) )
(declare-var a_array7 (Array Int Int) )
(declare-var a_array8 (Array Int Int) )
(declare-var b_array (Array Int Int) )
(declare-var c_array (Array Int Int) )
(declare-var d_array (Array Int Int) )

(rule (=> 
	(and 
		(= i 0)
	)
	(loop a_array b_array c_array d_array i count)
))
(rule (=> 
	(and 
		(loop a_array b_array c_array d_array i count)
		
		(= index_limit (* count 8))
		(< i index_limit)
		
		(= b_i (select b_array i))
		(= c_i (select c_array i))
		(= d_i (select d_array i))
		(= s (+ b_i (* c_i d_i)))
		(= a_i (* s s))
		(= a_array1 (store a_array i a_i))
		(= i1 (+ i 1))

		(= b_i1 (select b_array i1))
		(= c_i1 (select c_array i1))
		(= d_i1 (select d_array i1))
		(= s1 (+ b_i1 (* c_i1 d_i1)))
		(= a_i1 (* s1 s1))
		(= a_array2 (store a_array1 i1 a_i1))
		(= i2 (+ i1 1))

		(= b_i2 (select b_array i2))
		(= c_i2 (select c_array i2))
		(= d_i2 (select d_array i2))
		(= s2 (+ b_i2 (* c_i2 d_i2)))
		(= a_i2 (* s2 s2))
		(= a_array3 (store a_array2 i2 a_i2))
		(= i3 (+ i2 1))

		(= b_i3 (select b_array i3))
		(= c_i3 (select c_array i3))
		(= d_i3 (select d_array i3))
		(= s3 (+ b_i3 (* c_i3 d_i3)))
		(= a_i3 (* s3 s3))
		(= a_array4 (store a_array3 i3 a_i3))
		(= i4 (+ i3 1))

		(= b_i4 (select b_array i4))
		(= c_i4 (select c_array i4))
		(= d_i4 (select d_array i4))
		(= s4 (+ b_i4 (* c_i4 d_i4)))
		(= a_i4 (* s4 s4))
		(= a_array5 (store a_array4 i4 a_i4))
		(= i5 (+ i4 1))

		(= b_i5 (select b_array i5))
		(= c_i5 (select c_array i5))
		(= d_i5 (select d_array i5))
		(= s5 (+ b_i5 (* c_i5 d_i5)))
		(= a_i5 (* s5 s5))
		(= a_array6 (store a_array5 i5 a_i5))
		(= i6 (+ i5 1))

		(= b_i6 (select b_array i6))
		(= c_i6 (select c_array i6))
		(= d_i6 (select d_array i6))
		(= s6 (+ b_i6 (* c_i6 d_i6)))
		(= a_i6 (* s6 s6))
		(= a_array7 (store a_array6 i6 a_i6))
		(= i7 (+ i6 1))

		(= b_i7 (select b_array i7))
		(= c_i7 (select c_array i7))
		(= d_i7 (select d_array i7))
		(= s7 (+ b_i7 (* c_i7 d_i7)))
		(= a_i7 (* s7 s7))
		(= a_array8 (store a_array7 i7 a_i7))
		(= i8 (+ i7 1))
	)
	(loop a_array8 b_array c_array d_array i8 count)
))
(rule (=> 
	(and 
		(loop a_array b_array c_array d_array i count)
		(= index_limit (* count 8))
		(not (< i index_limit))
	)
	exit
))
(query exit)